313 316 314 315 374 375 376 377 378 379 380 381 390 392 391 393 394 395 396 371 373 372 370 369 368 365 398 397 389 388 387 386 382 383 384 385 409 404 405 408 407 406 399 400 403 402 401 357 358 359 360 361 362 363 364 346 345 347 348 349 350 351 352 415 416 414 413 353 354 355 356 412 411 410 418 417 419 420 421 422 423 424 425 426 427 428 429 430 432 437 438 436 435 434 433 431 445 444 443 442 446 447 448 449 450 441 440 439 454 455 456 457 458 459 460 571 572 573 0 1 2 3 4 5 6 7 8 9 10 11 14 15 16 17 18 19 20 568 569 570 468 469 467 466 465 464 463 462 461 452 453 499 500 501 498 497 496 470 471 472 473 474 567 29 28 27 26 25 24 21 13 12 23 22 31 30 32 33 34 35 36 37 38 40 41 39 42 43 44 47 48 49 50 84 51 52 54 53 55 56 83 82 85 86 87 90 89 88 78 62 79 80 81 57 58 59 60 61 63 64 76 77 74 75 65 66 67 68 70 69 138 137 129 130 132 133 134 135 136 139 140 141 151 150 149 152 148 147 146 142 143 144 145 158 157 159 156 155 153 154 160 162 168 163 167 166 164 165 203 204 202 201 200 199 198 205 206 207 208 209 210 211 212 213 214 215 216 217 223 224 222 221 220 218 219 193 194 195 196 197 184 185 183 182 179 181 180 169 171 170 172 175 174 173 108 109 110 111 112 161 113 114 131 128 127 126 125 124 71 72 73 119 118 120 121 122 123 117 116 115 106 105 104 103 107 542 541 543 544 547 546 545 548 549 551 101 100 552 553 554 99 102 98 96 95 97 94 93 92 91 46 45 555 556 557 558 559 550 560 561 562 563 564 565 566 478 477 479 480 476 475 482 481 483 485 484 536 537 539 538 540 176 177 178 187 188 186 192 191 190 226 225 189 227 228 229 230 231 233 232 234 235 236 237 240 239 238 246 247 245 244 243 242 241 248 249 250 251 252 254 253 255 256 257 300 299 262 258 259 260 261 263 264 265 266 298 297 267 271 268 269 272 273 274 275 292 291 293 270 294 296 295 330 331 332 333 288 289 290 276 277 278 279 282 281 280 287 286 285 284 283 334 335 336 337 338 339 340 341 344 343 342 366 367 327 328 329 326 325 324 323 322 321 320 319 317 318 305 306 304 303 301 302 508 507 506 509 510 511 512 513 522 521 523 527 528 529 530 531 532 533 488 534 535 487 486 489 490 491 526 525 492 493 524 494 495 518 519 520 517 514 515 516 502 503 504 505 307 308 309 310 311 451 312